22698
1 0 1 1 1 0 1 1 1 1 0 1 1 1 1 1 1 1 1 1 1 1 0 1 1 1 0 1 1 0 
18 19 21 27 2 12 15 27 18 28 4 28 13 13 28 18 3 20 27 0 18 16 23 24 23 18 27 19 4 2 19 19 4 16 27 6 20 8 24 16 18 9 6 4 8 19 13 21 19 14 24 16 24 16 8 6 11 9 18 7 4 0 7 8 13 11 2 14 28 25 18 12 19 9 23 23 20 23 8 16 23 0 9 25 4 13 6 2 27 7 28 6 25 25 2 3 11 6 0 28 28 15 25 18 4 0 4 24 27 3 19 4 27 12 12 8 28 7 17 8 9 11 17 19 9 16 2 11 19 17 28 24 25 20 23 9 3 3 28 14 12 27 11 11 25 2 24 15 27 25 24 17 23 0 8 11 2 15 3 13 13 27 23 24 23 27 23 4 3 21 23 20 19 14 4 2 0 20 4 20 2 21 2 19 12 8 28 23 0 21 2 21 6 4 7 12 7 15 20 19 